(set-logic QF_BV)
(declare-fun _substvar_1375_ () (_ BitVec 16))
(declare-fun _substvar_698_ () (_ BitVec 16))
(declare-fun _substvar_688_ () (_ BitVec 16))
(declare-fun _substvar_703_ () (_ BitVec 16))
(declare-fun _substvar_687_ () (_ BitVec 16))
(declare-fun _substvar_1355_ () (_ BitVec 16))
(declare-fun _substvar_1190_ () (_ BitVec 16))
(declare-fun _substvar_1347_ () (_ BitVec 16))
(declare-fun _substvar_704_ () (_ BitVec 16))
(declare-fun _substvar_1379_ () (_ BitVec 16))
(declare-fun _substvar_692_ () (_ BitVec 16))
(declare-fun _substvar_1484_ () (_ BitVec 16))
(declare-fun _substvar_709_ () (_ BitVec 16))
(assert (let ((?v_21 (bvadd (_ bv0 32) (bvsub (bvadd (_ bv0 32) ((_ zero_extend 16) _substvar_709_)) (_ bv0 32))))) (let ((?v_2 (bvadd ?v_21 (_ bv4 32))) (?v_29 ((_ zero_extend 16) _substvar_704_))) (let ((?v_27 (bvadd ?v_2 (bvsub (bvadd (bvadd (bvadd ?v_2 (_ bv70 32)) ?v_29) ((_ zero_extend 16) _substvar_703_)) ?v_2)))) (let ((?v_3 (bvadd ?v_27 (_ bv4 32)))) (let ((?v_33 (bvadd ?v_3 (bvsub (bvadd (bvadd (bvadd ?v_3 (_ bv59 32)) (_ bv0 32)) ((_ zero_extend 16) _substvar_698_)) ?v_3)))) (let ((?v_4 (bvadd ?v_33 (_ bv4 32)))) (let ((?v_39 (bvadd ?v_4 (bvsub (bvadd (bvadd (bvadd ?v_4 (_ bv63 32)) (_ bv0 32)) ((_ zero_extend 16) _substvar_692_)) ?v_4)))) (let ((?v_5 (bvadd ?v_39 (_ bv4 32))) (?v_46 ((_ zero_extend 16) _substvar_688_))) (let ((?v_44 (bvadd ?v_5 (bvsub (bvadd (bvadd (bvadd ?v_5 (_ bv64 32)) ?v_46) ((_ zero_extend 16) _substvar_687_)) ?v_5)))) (let ((?v_6 (bvadd ?v_44 (_ bv4 32)))) (let ((?v_51 (bvadd ?v_6 (bvsub (bvadd (bvadd (bvadd ?v_6 (_ bv59 32)) (_ bv0 32)) ((_ zero_extend 16) _substvar_1484_)) ?v_6)))) (let ((?v_7 (bvadd ?v_51 (_ bv4 32)))) (let ((?v_53 (bvadd ?v_7 (bvsub (bvadd (bvadd (bvadd ?v_7 (_ bv60 32)) (_ bv0 32)) ((_ zero_extend 16) _substvar_1347_)) ?v_7)))) (let ((?v_8 (bvadd ?v_53 (_ bv4 32)))) (let ((?v_55 (bvadd ?v_8 (bvsub (bvadd (bvadd (bvadd ?v_8 (_ bv62 32)) (_ bv0 32)) ((_ zero_extend 16) _substvar_1355_)) ?v_8)))) (let ((?v_9 (bvadd ?v_55 (_ bv4 32)))) (let ((?v_57 (bvadd ?v_9 (bvsub (bvadd (bvadd (bvadd ?v_9 (_ bv59 32)) (_ bv0 32)) ((_ zero_extend 16) _substvar_1190_)) ?v_9)))) (let ((?v_10 (bvadd ?v_57 (_ bv4 32))) (?v_56 ((_ zero_extend 16) _substvar_1375_))) (let ((?v_59 (bvadd ?v_10 (bvsub (bvadd (bvadd (bvadd ?v_10 (_ bv57 32)) ?v_56) (_ bv0 32)) ?v_10)))) (let ((?v_58 (bvadd ?v_59 (_ bv4 32)))) (and true true true true true true true true true true true true true true true true true true true true true true true true true true (bvslt (bvadd (bvadd (bvadd ?v_58 (_ bv58 32)) (_ bv0 32)) ((_ zero_extend 16) _substvar_1379_)) (_ bv0 32)) true true true true true true true true true true true true true true true true true true true true true true true true true true true true true true true true true true true true true true true true true true true true true true true true true true true true true true true true true true true true true true true true true true true true true true true true true true true true true true true true true true true true true true true true true true true true true true true true true true true true true true true true true true true true true true))))))))))))))))))))))
(check-sat)
(exit)
